Minimize
  - 37 y_0 - 12 y_1 - 51 y_2 - 6 y_3 - 29 y_4 - 46 y_5 - 59 y_6 - 20 y_7
   - 53 y_8 - 42 y_9 - 57 y_10 - 47 y_12 - 52 y_13 - 49 y_14 - 35 y_15
   - 26 y_16 - 45 y_17 - 55 y_18 - 50 y_19 - 12 y_20 - 46 y_21 - 35 y_22
   - 10 y_23 - 45 y_24 - 35 y_25 - 49 y_26 - 39 y_27 - 34 y_28 - 49 y_29
   - 25 y_30 - 39 y_31 - 49 y_32 - 24 y_33 - 34 y_34 - 30 y_35 - 52 y_36
   - 39 y_37 - 28 y_38 - 20 y_39 - 31 y_40 - 67 y_41 - 60 y_42 - 35 y_43
   - 48 y_44 - 40 y_45 - 49 y_46 - 36 y_47 - 34 y_48 - 35 y_49 - 26 y_50
   - 24 y_51 - 35 y_52 - 54 y_53 - 24 y_54 - 12 y_55 - 21 y_56 - 61 y_57
   - 45 y_58 - 45 y_59 - 41 y_60 - 35 y_61 - 32 y_62 - 31 y_63 - 53 y_64
   - 15 y_65 - 45 y_66 - 4 y_67 - 56 y_68 - 27 y_69 - 32 y_70 - 29 y_71
   - 48 y_72 - 23 y_73 - 33 y_74 - 37 y_75 - 48 y_76 - 40 y_77 - 42 y_78
   - 36 y_79 - 32 y_80 - 47 y_81 - 17 y_82 - 50 y_83 - 23 y_84 - 26 y_85
   - 35 y_86 - 58 y_87 - 30 y_88 - 27 y_89 - 40 y_90 - 32 y_91 - 49 y_92
   - 48 y_93 - 18 y_94 - 28 y_95 - 33 y_96 - 49 y_97 - 37 y_98 - 59 y_99
   + 3692 Constant
Subject To
 c_0: y_52 = 1
 c_1_0: y_0 + y_9 + y_21 + y_27 + y_80 >= 1
 c_1_1: y_1 + y_7 >= 1
 c_1_2: y_2 + y_46 >= 1
 c_1_3: y_3 + y_11 + y_65 + y_67 >= 1
 c_1_4: y_4 + y_30 + y_31 + y_34 + y_50 + y_89 + y_95 >= 1
 c_1_5: y_5 + y_9 + y_13 + y_27 + y_29 + y_32 + y_72 >= 1
 c_1_6: y_6 + y_42 >= 1
 c_1_7: y_1 + y_7 + y_39 + y_51 + y_71 + y_82 + y_85 >= 1
 c_1_8: y_8 + y_24 + y_53 >= 1
 c_1_9: y_0 + y_5 + y_9 + y_13 + y_27 + y_29 + y_32 + y_72 >= 1
 c_1_10: y_10 + y_18 + y_57 + y_87 >= 1
 c_1_11: y_3 + y_11 + y_23 + y_67 >= 1
 c_1_12: y_12 + y_18 + y_19 + y_21 >= 1
 c_1_13: y_5 + y_9 + y_13 + y_29 + y_32 + y_72 >= 1
 c_1_14: y_14 + y_76 + y_92 + y_97 >= 1
 c_1_15: y_15 + y_35 + y_47 + y_74 + y_77 + y_78 + y_96 >= 1
 c_1_16: y_16 + y_25 + y_73 + y_80 + y_94 >= 1
 c_1_17: y_17 + y_36 + y_59 + y_93 >= 1
 c_1_18: y_10 + y_12 + y_18 + y_57 >= 1
 c_1_19: y_12 + y_19 + y_83 + y_87 >= 1
 c_1_20: y_20 + y_55 + y_82 + y_94 >= 1
 c_1_21: y_0 + y_12 + y_21 + y_32 >= 1
 c_1_22: y_22 + y_70 + y_90 + y_98 >= 1
 c_1_23: y_11 + y_23 >= 1
 c_1_24: y_8 + y_24 + y_90 + y_98 >= 1
 c_1_25: y_16 + y_25 + y_48 + y_61 >= 1
 c_1_26: y_26 + y_83 >= 1
 c_1_27: y_0 + y_5 + y_9 + y_27 + y_29 + y_72 + y_80 >= 1
 c_1_28: y_28 + y_40 + y_52 + y_75 >= 1
 c_1_29: y_5 + y_9 + y_13 + y_27 + y_29 + y_32 + y_72 >= 1
 c_1_30: y_4 + y_30 + y_56 + y_70 + y_89 + y_91 + y_95 >= 1
 c_1_31: y_4 + y_31 + y_34 >= 1
 c_1_32: y_5 + y_9 + y_13 + y_21 + y_29 + y_32 >= 1
 c_1_33: y_33 + y_69 + y_84 >= 1
 c_1_34: y_4 + y_31 + y_34 + y_50 + y_62 >= 1
 c_1_35: y_15 + y_35 + y_47 + y_48 + y_61 + y_74 + y_77 + y_85 + y_96 >= 1
 c_1_36: y_17 + y_36 + y_59 + y_93 >= 1
 c_1_37: y_37 + y_43 + y_66 + y_86 + y_88 >= 1
 c_1_38: y_38 + y_50 + y_51 + y_62 >= 1
 c_1_39: y_7 + y_39 + y_51 + y_71 + y_82 + y_85 >= 1
 c_1_40: y_28 + y_40 + y_52 >= 1
 c_1_41: y_41 >= 1
 c_1_42: y_6 + y_42 >= 1
 c_1_43: y_37 + y_43 + y_86 + y_88 >= 1
 c_1_44: y_44 + y_77 + y_78 >= 1
 c_1_45: y_45 + y_49 + y_79 + y_86 >= 1
 c_1_46: y_2 + y_46 >= 1
 c_1_47: y_15 + y_35 + y_47 + y_74 + y_77 + y_78 + y_96 >= 1
 c_1_48: y_25 + y_35 + y_48 + y_61 + y_74 + y_77 >= 1
 c_1_49: y_45 + y_49 + y_79 + y_86 >= 1
 c_1_50: y_4 + y_34 + y_38 + y_50 + y_62 + y_89 + y_95 >= 1
 c_1_51: y_7 + y_38 + y_39 + y_51 + y_71 >= 1
 c_1_52: y_28 + y_40 + y_52 + y_75 >= 1
 c_1_53: y_8 + y_53 >= 1
 c_1_54: y_54 + y_56 >= 1
 c_1_55: y_20 + y_55 + y_82 >= 1
 c_1_56: y_30 + y_54 + y_56 >= 1
 c_1_57: y_10 + y_18 + y_57 >= 1
 c_1_58: y_58 + y_81 >= 1
 c_1_59: y_17 + y_36 + y_59 + y_72 + y_93 >= 1
 c_1_60: y_60 + y_75 >= 1
 c_1_61: y_25 + y_35 + y_48 + y_61 + y_74 + y_77 >= 1
 c_1_62: y_34 + y_38 + y_50 + y_62 >= 1
 c_1_63: y_63 + y_71 + y_85 >= 1
 c_1_64: y_64 + y_66 >= 1
 c_1_65: y_3 + y_65 >= 1
 c_1_66: y_37 + y_64 + y_66 >= 1
 c_1_67: y_3 + y_11 + y_67 >= 1
 c_1_68: y_68 >= 1
 c_1_69: y_33 + y_69 + y_84 >= 1
 c_1_70: y_22 + y_30 + y_70 + y_90 + y_91 + y_95 + y_98 >= 1
 c_1_71: y_7 + y_39 + y_51 + y_63 + y_71 + y_85 >= 1
 c_1_72: y_5 + y_9 + y_13 + y_27 + y_29 + y_59 + y_72 + y_93 >= 1
 c_1_73: y_16 + y_73 + y_80 + y_94 >= 1
 c_1_74: y_15 + y_35 + y_47 + y_48 + y_61 + y_74 + y_77 + y_96 >= 1
 c_1_75: y_28 + y_52 + y_60 + y_75 >= 1
 c_1_76: y_14 + y_76 + y_97 >= 1
 c_1_77: y_15 + y_35 + y_44 + y_47 + y_48 + y_61 + y_74 + y_77 + y_78
   + y_96 >= 1
 c_1_78: y_15 + y_44 + y_47 + y_77 + y_78 + y_96 >= 1
 c_1_79: y_45 + y_49 + y_79 + y_86 >= 1
 c_1_80: y_0 + y_16 + y_27 + y_73 + y_80 >= 1
 c_1_81: y_58 + y_81 >= 1
 c_1_82: y_7 + y_20 + y_39 + y_55 + y_82 + y_85 >= 1
 c_1_83: y_19 + y_26 + y_83 >= 1
 c_1_84: y_33 + y_69 + y_84 >= 1
 c_1_85: y_7 + y_35 + y_39 + y_63 + y_71 + y_82 + y_85 + y_96 >= 1
 c_1_86: y_37 + y_43 + y_45 + y_49 + y_79 + y_86 >= 1
 c_1_87: y_10 + y_19 + y_87 >= 1
 c_1_88: y_37 + y_43 + y_88 >= 1
 c_1_89: y_4 + y_30 + y_50 + y_89 + y_91 + y_95 >= 1
 c_1_90: y_22 + y_24 + y_70 + y_90 + y_98 >= 1
 c_1_91: y_30 + y_70 + y_89 + y_91 + y_95 + y_98 >= 1
 c_1_92: y_14 + y_92 + y_97 >= 1
 c_1_93: y_17 + y_36 + y_59 + y_72 + y_93 >= 1
 c_1_94: y_16 + y_20 + y_73 + y_94 >= 1
 c_1_95: y_4 + y_30 + y_50 + y_70 + y_89 + y_91 + y_95 >= 1
 c_1_96: y_15 + y_35 + y_47 + y_74 + y_77 + y_78 + y_85 + y_96 >= 1
 c_1_97: y_14 + y_76 + y_92 + y_97 >= 1
 c_1_98: y_22 + y_24 + y_70 + y_90 + y_91 + y_98 >= 1
 c_1_99: y_99 >= 1
Bounds
 Constant = 1
Binaries
 y_0 y_1 y_2 y_3 y_4 y_5 y_6 y_7 y_8 y_9 y_10 y_11 y_12 y_13 y_14 y_15 y_16
 y_17 y_18 y_19 y_20 y_21 y_22 y_23 y_24 y_25 y_26 y_27 y_28 y_29 y_30 y_31
 y_32 y_33 y_34 y_35 y_36 y_37 y_38 y_39 y_40 y_41 y_42 y_43 y_44 y_45 y_46
 y_47 y_48 y_49 y_50 y_51 y_52 y_53 y_54 y_55 y_56 y_57 y_58 y_59 y_60 y_61
 y_62 y_63 y_64 y_65 y_66 y_67 y_68 y_69 y_70 y_71 y_72 y_73 y_74 y_75 y_76
 y_77 y_78 y_79 y_80 y_81 y_82 y_83 y_84 y_85 y_86 y_87 y_88 y_89 y_90 y_91
 y_92 y_93 y_94 y_95 y_96 y_97 y_98 y_99
End
